WARNING: for repeatability, setting FPU to use double precision
 -----------------------------------------------------------------------------------------------------------------------
|                                 manysat2.0    4 thread(s) on 8 core(s)                                                |
 -----------------------------------------------------------------------------------------------------------------------
 ===============================================[ Problem Statistics ]==================================================
|                                                                                                                       |
|  Number of cores:                 4                                                                                   |
|  Number of variables:          4288                                                                                   |
|  Number of clauses:           76353                                                                                   |
|  Parse time:                   0.08 s                                                                                 |
|                                                                                                                       |
 ==============================================[ Search Statistics ]====================================================
|   Thread  | Conflicts |          ORIGINAL         |          LEARNT          |  exported  / imported      |  Progress |
|    (id)   |           |    Vars  Clauses Literals |    Limit  Clauses Lit/Cl |  (clauses by restart)      |           |
 =======================================================================================================================
|         0 |       100 |    3660    75477   429197 |    27674       57      4 |        1000  -           0 | 14.646 %  |
|         3 |       100 |    3654    75477   429197 |    27996      419      5 |        1893  -         323 | 14.785 %  |
|         1 |       100 |    3651    75477   429197 |    27996      485      5 |        1896  -         390 | 14.855 %  |
|         0 |       250 |    3654    75477   429197 |    30442      547      5 |        1905  -         341 | 14.785 %  |
|         2 |       100 |    3645    75477   429197 |    27996      554      5 |        1902  -         457 | 14.995 %  |
|         3 |       250 |    3645    75477   429197 |    30795      909      5 |        1908  -         664 | 14.995 %  |
|         1 |       250 |    3645    75477   429197 |    30795     1004      5 |        1911  -         759 | 14.995 %  |
|         2 |       250 |    3644    75477   429197 |    30795     1187      5 |        1912  -         941 | 15.019 %  |
|         0 |       475 |    3645    75477   429197 |    33486     1554      5 |        1927  -        1123 | 14.995 %  |
|         3 |       475 |    3644    75477   429197 |    33875     1700      5 |        1918  -        1230 | 15.019 %  |
|         1 |       475 |    3643    75477   429197 |    33875     1783      5 |        1911  -        1314 | 15.042 %  |
|         2 |       475 |    3643    75477   429197 |    33875     2148      5 |        1920  -        1677 | 15.042 %  |
|         3 |       812 |    3642    75477   429197 |    37262     2947      5 |        1918  -        2141 | 15.065 %  |
|         1 |       812 |    3643    75477   429197 |    37262     3023      5 |        1919  -        2217 | 15.042 %  |
|         0 |       812 |    3643    75477   429197 |    36835     3118      5 |        1935  -        2350 | 15.042 %  |
|         2 |       812 |    3642    75477   429197 |    37262     3295      5 |        1920  -        2487 | 15.065 %  |
|         1 |      1318 |    3642    75477   429197 |    40989     4871      6 |        1940  -        3559 | 15.065 %  |
|         3 |      1318 |    3642    75477   429197 |    40989     4883      5 |        1939  -        3571 | 15.065 %  |
|         0 |      1318 |    3641    75477   429197 |    40518     5093      5 |        1941  -        3820 | 15.089 %  |
|         2 |      1318 |    3641    75477   429197 |    40989     5357      6 |        1941  -        4044 | 15.089 %  |
|         3 |      2077 |    3641    75477   429197 |    45087     7477      6 |        1942  -        5406 | 15.089 %  |
|         1 |      2077 |    3640    75477   429197 |    45087     8001      6 |        1940  -        5931 | 15.112 %  |
|         2 |      2077 |    3640    75477   429197 |    45087     8066      6 |        1941  -        5994 | 15.112 %  |
|         0 |      2077 |    3640    75477   429197 |    44570     8194      6 |        1941  -        6162 | 15.112 %  |
|         3 |      3216 |    3640    75477   429197 |    49596    11518      6 |        1942  -        8308 | 15.112 %  |
|         0 |      3216 |    3640    75477   429197 |    49027    11922      6 |        1941  -        8751 | 15.112 %  |
|         1 |      3216 |    3640    75477   429197 |    49596    12277      6 |        1940  -        9068 | 15.112 %  |
|         2 |      3216 |    3640    75477   429197 |    49596    13077      6 |        1941  -        9865 | 15.112 %  |
|         1 |      4924 |    3640    75477   429197 |    54556    17412      6 |        1946  -       12495 | 15.112 %  |
|         0 |      4924 |    3638    75477   429197 |    53930    17716      6 |        1945  -       12838 | 15.159 %  |
|         3 |      4924 |    3638    75477   429197 |    54556    18195      6 |        1946  -       13278 | 15.159 %  |
|         2 |      4924 |    3637    75477   429197 |    54556    19809      6 |        1947  -       14890 | 15.182 %  |
|         1 |      7486 |    3635    71114   403666 |    60012    24272      7 |        1951  -       16801 | 15.229 %  |
|         3 |      7486 |    3637    75477   429197 |    60012    26302      6 |        1952  -       18823 | 15.182 %  |
|         0 |      7486 |    3636    71136   403748 |    59323    26611      7 |        1950  -       19178 | 15.205 %  |
|         2 |      7486 |    3637    75477   429197 |    60012    28167      7 |        1953  -       20686 | 15.182 %  |
|         1 |     11330 |    3635    71114   403666 |    66013    36311      7 |        1957  -       24996 | 15.229 %  |
|         3 |     11330 |    3634    71114   403666 |    66013    37697      7 |        1954  -       26382 | 15.252 %  |
|         0 |     11330 |    3634    71136   403748 |    65255    38142      7 |        1954  -       26866 | 15.252 %  |
|         2 |     11330 |    3635    71114   403666 |    66013    39416      7 |        1959  -       28098 | 15.229 %  |
|         3 |     17096 |    3633    71114   403666 |    72614    51638      8 |        1960  -       34557 | 15.275 %  |
|         1 |     17096 |    3632    71055   403444 |    72614    53552      9 |        1959  -       36483 | 15.299 %  |
|         0 |     17096 |    3633    71077   403526 |    71781    53128      8 |        1966  -       36094 | 15.275 %  |
|         2 |     17096 |    3632    71055   403444 |    72614    55193      9 |        1966  -       38120 | 15.299 %  |
|         3 |     25745 |    3632    71055   403444 |    79876    70102     11 |        1966  -       44382 | 15.299 %  |
|         1 |     25745 |    3632    71055   403444 |    79876    71694     13 |        1965  -       45976 | 15.299 %  |
|         0 |     25745 |    3632    71077   403526 |    78959    72113     14 |        1966  -       46430 | 15.299 %  |
|         2 |     25745 |    3632    71055   403444 |    79876    72553     14 |        1966  -       46831 | 15.299 %  |
|         2 |     38719 |    3632    71055   403444 |    87863    50767     21 |        1966  -       59317 | 15.299 %  |
|         0 |     38719 |    3632    71055   403444 |    86855    52882     24 |        1966  -       59404 | 15.299 %  |
|         1 |     38719 |    3632    71055   403444 |    87863    54496     21 |        1965  -       60689 | 15.299 %  |
|         3 |     38719 |    3632    71055   403444 |    87863    50673     25 |        1966  -       59669 | 15.299 %  |
|         1 |     58180 |    3632    71055   403444 |    96650    89134     29 |        1965  -       75866 | 15.299 %  |
|         2 |     58180 |    3632    71055   403444 |    96650    87694     30 |        1966  -       76783 | 15.299 %  |
|         3 |     58180 |    3632    71055   403444 |    96650    87218     32 |        1966  -       76753 | 15.299 %  |
|         0 |     58180 |    3632    71055   403444 |    95541    33290     32 |        1966  -       78301 | 15.299 %  |
|         1 |     87372 |    3632    71055   403444 |   106315    84749     24 |        1965  -      106291 | 15.299 %  |
|         0 |     87372 |    3632    71055   403444 |   105095    89308     29 |        1966  -      105127 | 15.299 %  |
|         2 |     87372 |    3632    71055   403444 |   106315    89668     29 |        1966  -      110363 | 15.299 %  |
|         3 |     87372 |    3632    71055   403444 |   106315    88673     30 |        1966  -      110651 | 15.299 %  |
|         1 |    131161 |    3632    71055   403444 |   116946    84879     40 |        1965  -      142065 | 15.299 %  |
|         0 |    131161 |    3632    71055   403444 |   115604    95449     31 |        1966  -      141262 | 15.299 %  |
|         2 |    131161 |    3632    71055   403444 |   116946   105920     33 |        1966  -      153885 | 15.299 %  |
|         3 |    131161 |    3632    71055   403444 |   116946   101955     29 |        1966  -      152002 | 15.299 %  |
|         1 |    196845 |    3632    71055   403444 |   128641   118520     43 |        1965  -      188852 | 15.299 %  |
|         0 |    196845 |    3632    71055   403444 |   127165    31370     59 |        1966  -      187164 | 15.299 %  |
|         3 |    196845 |    3632    71055   403444 |   128641    35433     39 |        1966  -      194740 | 15.299 %  |
|         2 |    196845 |    3632    71055   403444 |   128641    56922     47 |        1966  -      212921 | 15.299 %  |
|         3 |    295371 |    3632    71055   403444 |   141505   104568     47 |        1966  -      275779 | 15.299 %  |
|         1 |    295371 |    3632    71055   403444 |   141505   113488     46 |        1965  -      281330 | 15.299 %  |
|         2 |    295371 |    3632    71055   403444 |   141505   107619     48 |        1966  -      278643 | 15.299 %  |
|         0 |    295371 |    3632    71055   403444 |   139881   117456     52 |        1966  -      278839 | 15.299 %  |
|         3 |    443160 |    3632    71055   403444 |   155656   114690    111 |        1966  -      360610 | 15.299 %  |
|         0 |    443160 |    3632    71055   403444 |   153870   121564    113 |        1966  -      355060 | 15.299 %  |
|         2 |    443160 |    3632    71055   403444 |   155656   127491     89 |        1966  -      362856 | 15.299 %  |
|         1 |    443160 |    3632    71055   403444 |   155656   129040    101 |        1965  -      370951 | 15.299 %  |
|         3 |    664843 |    3632    71055   403444 |   171221    76052     53 |        1966  -      492812 | 15.299 %  |
|         0 |    664843 |    3632    71055   403444 |   169257    89141     47 |        1966  -      488425 | 15.299 %  |
|         2 |    664843 |    3632    71055   403444 |   171221    99095     46 |        1966  -      506395 | 15.299 %  |
|         1 |    664843 |    3632    71055   403444 |   171221   132327     45 |        1965  -      531199 | 15.299 %  |
|         0 |    997368 |    3632    71055   403444 |   186182   132796     90 |        1966  -      636937 | 15.299 %  |
|         3 |    997368 |    3632    71055   403444 |   188343   139530     78 |        1966  -      659208 | 15.299 %  |
|         2 |    997368 |    3632    71055   403444 |   188343   153783     65 |        1966  -      665851 | 15.299 %  |
|         1 |    997368 |    3632    71055   403444 |   188343    52580     60 |        1965  -      706270 | 15.299 %  |
|         0 |   1496156 |    3632    71055   403444 |   204801    84733     40 |        1966  -      887537 | 15.299 %  |
|         1 |   1496156 |    3632    71055   403444 |   207178   121635     85 |        1965  -      937807 | 15.299 %  |
|         2 |   1496156 |    3632    71055   403444 |   207178   112365     58 |        1966  -      937664 | 15.299 %  |
|         3 |   1496156 |    3632    71055   403444 |   207178   152365     62 |        1966  -      942648 | 15.299 %  |
|         0 |   2244338 |    3632    71055   403444 |   225281    55774     80 |        1966  -     1200474 | 15.299 %  |
|         2 |   2244338 |    3632    71055   403444 |   227895    92467     78 |        1966  -     1250212 | 15.299 %  |
|         1 |   2244338 |    3632    71055   403444 |   227895   108615     63 |        1965  -     1268912 | 15.299 %  |
|         3 |   2244338 |    3632    71055   403444 |   227895    68815     63 |        1966  -     1348080 | 15.299 %  |
|         2 |   3366612 |    3632    71055   403444 |   250685   146183    137 |        1966  -     1625758 | 15.299 %  |
|         0 |   3366612 |    3632    71055   403444 |   247809   181830    143 |        1966  -     1566102 | 15.299 %  |
|         1 |   3366612 |    3632    71055   403444 |   250685   223889    133 |        1965  -     1635969 | 15.299 %  |
|         3 |   3366612 |    3632    71055   403444 |   250685    39341     63 |        1966  -     1649774 | 15.299 %  |
|         1 |   5050023 |    3632    71055   403444 |   275754    40313     48 |        1965  -     2045655 | 15.299 %  |
|         3 |   5050023 |    3632    71055   403444 |   275754    44545     51 |        1966  -     2044952 | 15.299 %  |
|         2 |   5050023 |    3632    71055   403444 |   275754   197992    118 |        1966  -     2157706 | 15.299 %  |
|         0 |   5050023 |    3632    71055   403444 |   272590   178899    132 |        1966  -     2078266 | 15.299 %  |
|         1 |   7575139 |    3632    71055   403444 |   303329   118238    115 |        1965  -     2631271 | 15.299 %  |
|         3 |   7575139 |    3632    71055   403444 |   303329   152357    123 |        1966  -     2622837 | 15.299 %  |
|         0 |   7575139 |    3632    71055   403444 |   299849   167813    157 |        1966  -     2726569 | 15.299 %  |
|         2 |   7575139 |    3632    71055   403444 |   303329   118729    104 |        1966  -     2933200 | 15.299 %  |
